n_res = 4;
rcap = [22, 24, 57, 55];
rtype = [1, 1, 2, 2];
n_tasks = 10;
modes = [ {1, 2, 3}, {4, 5, 6}, {7, 8, 9}, {10, 11, 12}, {13, 14, 15}, {16, 17, 18}, {19, 20, 21}, {22, 23, 24}, {25, 26, 27}, {28, 29, 30} ];
succ = [ {5, 7}, {4}, {10}, {5, 6, 8}, {9}, {9, 10}, {8, 9}, {}, {}, {} ];
n_opt = 30;
dur = [6, 7, 8, 2, 3, 7, 2, 7, 9, 2, 6, 10, 1, 5, 8, 4, 9, 9, 2, 2, 2, 10, 10, 10, 2, 3, 3, 2, 3, 6];
rreq = [|  8,  6,  4,  8,  7,  7,  6,  6,  4, 10,  7,  6,  5,  3,  1,  6,  5,  3,  6,  8,  7,  7,  8,  8,  3,  2,  1, 10,  9,  8
        | 10, 10, 10,  4,  3,  1, 10,  9,  8,  7,  7,  6,  3,  3,  3,  1,  1,  1,  8,  4,  2,  3,  3,  3,  4,  3,  4,  4,  4,  3
        |  4,  4,  3,  6,  6,  6, 10,  9,  9,  8,  7,  4,  6,  6,  5,  9,  9,  9,  2,  2,  2,  7,  5,  4,  9,  4,  6,  5,  4,  2
        |  3,  3,  3,  3,  2,  1,  9,  6,  3,  4,  4,  4,  8,  8,  8,  5,  4,  5,  3,  2,  3,  8,  8,  9,  7,  6,  6, 10,  9,  9 |];
